p cnf 188 766
1 2 3 4 5 6 7 8 9 10 11 12 13 14 15 16 17 18 19 20 21 0
60 61 62 63 64 65 66 67 68 69 70 71 72 73 74 75 76 77 78 79 80 0
81 82 83 84 85 86 87 88 89 90 91 92 93 94 95 0
132 133 134 135 136 137 138 139 140 141 142 143 144 145 146 147 148 149 150 151 152 0
153 154 155 156 157 158 159 160 161 162 163 164 165 166 167 168 0
169 170 171 172 173 174 175 176 177 178 179 180 181 182 183 184 185 186 187 188 0
-1 -22 0
-1 -41 0
-1 -60 0
-1 -81 0
-1 -115 0
-1 -132 0
-1 -153 0
-1 -169 0
-22 -41 0
-22 -60 0
-22 -81 0
-22 -115 0
-22 -132 0
-22 -153 0
-22 -169 0
-41 -60 0
-41 -81 0
-41 -115 0
-41 -132 0
-41 -153 0
-41 -169 0
-60 -81 0
-60 -115 0
-60 -132 0
-60 -153 0
-60 -169 0
-81 -115 0
-81 -132 0
-81 -153 0
-81 -169 0
-115 -132 0
-115 -153 0
-115 -169 0
-132 -153 0
-132 -169 0
-153 -169 0
-2 -23 0
-2 -42 0
-2 -61 0
-2 -82 0
-2 -96 0
-2 -116 0
-2 -133 0
-2 -154 0
-2 -170 0
-23 -42 0
-23 -61 0
-23 -82 0
-23 -96 0
-23 -116 0
-23 -133 0
-23 -154 0
-23 -170 0
-42 -61 0
-42 -82 0
-42 -96 0
-42 -116 0
-42 -133 0
-42 -154 0
-42 -170 0
-61 -82 0
-61 -96 0
-61 -116 0
-61 -133 0
-61 -154 0
-61 -170 0
-82 -96 0
-82 -116 0
-82 -133 0
-82 -154 0
-82 -170 0
-96 -116 0
-96 -133 0
-96 -154 0
-96 -170 0
-116 -133 0
-116 -154 0
-116 -170 0
-133 -154 0
-133 -170 0
-154 -170 0
-3 -24 0
-3 -43 0
-3 -62 0
-3 -83 0
-3 -97 0
-3 -117 0
-3 -134 0
-3 -171 0
-24 -43 0
-24 -62 0
-24 -83 0
-24 -97 0
-24 -117 0
-24 -134 0
-24 -171 0
-43 -62 0
-43 -83 0
-43 -97 0
-43 -117 0
-43 -134 0
-43 -171 0
-62 -83 0
-62 -97 0
-62 -117 0
-62 -134 0
-62 -171 0
-83 -97 0
-83 -117 0
-83 -134 0
-83 -171 0
-97 -117 0
-97 -134 0
-97 -171 0
-117 -134 0
-117 -171 0
-134 -171 0
-4 -25 0
-4 -44 0
-4 -63 0
-4 -84 0
-4 -98 0
-4 -118 0
-4 -135 0
-4 -172 0
-25 -44 0
-25 -63 0
-25 -84 0
-25 -98 0
-25 -118 0
-25 -135 0
-25 -172 0
-44 -63 0
-44 -84 0
-44 -98 0
-44 -118 0
-44 -135 0
-44 -172 0
-63 -84 0
-63 -98 0
-63 -118 0
-63 -135 0
-63 -172 0
-84 -98 0
-84 -118 0
-84 -135 0
-84 -172 0
-98 -118 0
-98 -135 0
-98 -172 0
-118 -135 0
-118 -172 0
-135 -172 0
-5 -26 0
-5 -64 0
-5 -85 0
-5 -99 0
-5 -119 0
-5 -136 0
-5 -155 0
-5 -173 0
-26 -64 0
-26 -85 0
-26 -99 0
-26 -119 0
-26 -136 0
-26 -155 0
-26 -173 0
-64 -85 0
-64 -99 0
-64 -119 0
-64 -136 0
-64 -155 0
-64 -173 0
-85 -99 0
-85 -119 0
-85 -136 0
-85 -155 0
-85 -173 0
-99 -119 0
-99 -136 0
-99 -155 0
-99 -173 0
-119 -136 0
-119 -155 0
-119 -173 0
-136 -155 0
-136 -173 0
-155 -173 0
-6 -65 0
-6 -120 0
-6 -137 0
-6 -174 0
-65 -120 0
-65 -137 0
-65 -174 0
-120 -137 0
-120 -174 0
-137 -174 0
-7 -27 0
-7 -45 0
-7 -66 0
-7 -86 0
-7 -100 0
-7 -138 0
-7 -156 0
-7 -175 0
-27 -45 0
-27 -66 0
-27 -86 0
-27 -100 0
-27 -138 0
-27 -156 0
-27 -175 0
-45 -66 0
-45 -86 0
-45 -100 0
-45 -138 0
-45 -156 0
-45 -175 0
-66 -86 0
-66 -100 0
-66 -138 0
-66 -156 0
-66 -175 0
-86 -100 0
-86 -138 0
-86 -156 0
-86 -175 0
-100 -138 0
-100 -156 0
-100 -175 0
-138 -156 0
-138 -175 0
-156 -175 0
-8 -28 0
-8 -46 0
-8 -67 0
-8 -101 0
-8 -139 0
-8 -157 0
-8 -176 0
-28 -46 0
-28 -67 0
-28 -101 0
-28 -139 0
-28 -157 0
-28 -176 0
-46 -67 0
-46 -101 0
-46 -139 0
-46 -157 0
-46 -176 0
-67 -101 0
-67 -139 0
-67 -157 0
-67 -176 0
-101 -139 0
-101 -157 0
-101 -176 0
-139 -157 0
-139 -176 0
-157 -176 0
-9 -29 0
-9 -47 0
-9 -68 0
-9 -87 0
-9 -102 0
-9 -140 0
-9 -158 0
-9 -177 0
-29 -47 0
-29 -68 0
-29 -87 0
-29 -102 0
-29 -140 0
-29 -158 0
-29 -177 0
-47 -68 0
-47 -87 0
-47 -102 0
-47 -140 0
-47 -158 0
-47 -177 0
-68 -87 0
-68 -102 0
-68 -140 0
-68 -158 0
-68 -177 0
-87 -102 0
-87 -140 0
-87 -158 0
-87 -177 0
-102 -140 0
-102 -158 0
-102 -177 0
-140 -158 0
-140 -177 0
-158 -177 0
-10 -30 0
-10 -48 0
-10 -69 0
-10 -88 0
-10 -103 0
-10 -121 0
-10 -141 0
-10 -159 0
-10 -178 0
-30 -48 0
-30 -69 0
-30 -88 0
-30 -103 0
-30 -121 0
-30 -141 0
-30 -159 0
-30 -178 0
-48 -69 0
-48 -88 0
-48 -103 0
-48 -121 0
-48 -141 0
-48 -159 0
-48 -178 0
-69 -88 0
-69 -103 0
-69 -121 0
-69 -141 0
-69 -159 0
-69 -178 0
-88 -103 0
-88 -121 0
-88 -141 0
-88 -159 0
-88 -178 0
-103 -121 0
-103 -141 0
-103 -159 0
-103 -178 0
-121 -141 0
-121 -159 0
-121 -178 0
-141 -159 0
-141 -178 0
-159 -178 0
-11 -49 0
-11 -70 0
-11 -104 0
-11 -122 0
-11 -142 0
-11 -160 0
-11 -179 0
-49 -70 0
-49 -104 0
-49 -122 0
-49 -142 0
-49 -160 0
-49 -179 0
-70 -104 0
-70 -122 0
-70 -142 0
-70 -160 0
-70 -179 0
-104 -122 0
-104 -142 0
-104 -160 0
-104 -179 0
-122 -142 0
-122 -160 0
-122 -179 0
-142 -160 0
-142 -179 0
-160 -179 0
-12 -31 0
-12 -50 0
-12 -71 0
-12 -89 0
-12 -105 0
-12 -123 0
-12 -143 0
-12 -161 0
-12 -180 0
-31 -50 0
-31 -71 0
-31 -89 0
-31 -105 0
-31 -123 0
-31 -143 0
-31 -161 0
-31 -180 0
-50 -71 0
-50 -89 0
-50 -105 0
-50 -123 0
-50 -143 0
-50 -161 0
-50 -180 0
-71 -89 0
-71 -105 0
-71 -123 0
-71 -143 0
-71 -161 0
-71 -180 0
-89 -105 0
-89 -123 0
-89 -143 0
-89 -161 0
-89 -180 0
-105 -123 0
-105 -143 0
-105 -161 0
-105 -180 0
-123 -143 0
-123 -161 0
-123 -180 0
-143 -161 0
-143 -180 0
-161 -180 0
-13 -32 0
-13 -51 0
-13 -72 0
-13 -90 0
-13 -106 0
-13 -144 0
-13 -162 0
-13 -181 0
-32 -51 0
-32 -72 0
-32 -90 0
-32 -106 0
-32 -144 0
-32 -162 0
-32 -181 0
-51 -72 0
-51 -90 0
-51 -106 0
-51 -144 0
-51 -162 0
-51 -181 0
-72 -90 0
-72 -106 0
-72 -144 0
-72 -162 0
-72 -181 0
-90 -106 0
-90 -144 0
-90 -162 0
-90 -181 0
-106 -144 0
-106 -162 0
-106 -181 0
-144 -162 0
-144 -181 0
-162 -181 0
-14 -33 0
-14 -52 0
-14 -73 0
-14 -91 0
-14 -107 0
-14 -124 0
-14 -145 0
-14 -182 0
-33 -52 0
-33 -73 0
-33 -91 0
-33 -107 0
-33 -124 0
-33 -145 0
-33 -182 0
-52 -73 0
-52 -91 0
-52 -107 0
-52 -124 0
-52 -145 0
-52 -182 0
-73 -91 0
-73 -107 0
-73 -124 0
-73 -145 0
-73 -182 0
-91 -107 0
-91 -124 0
-91 -145 0
-91 -182 0
-107 -124 0
-107 -145 0
-107 -182 0
-124 -145 0
-124 -182 0
-145 -182 0
-15 -34 0
-15 -53 0
-15 -74 0
-15 -92 0
-15 -108 0
-15 -125 0
-15 -146 0
-15 -163 0
-15 -183 0
-34 -53 0
-34 -74 0
-34 -92 0
-34 -108 0
-34 -125 0
-34 -146 0
-34 -163 0
-34 -183 0
-53 -74 0
-53 -92 0
-53 -108 0
-53 -125 0
-53 -146 0
-53 -163 0
-53 -183 0
-74 -92 0
-74 -108 0
-74 -125 0
-74 -146 0
-74 -163 0
-74 -183 0
-92 -108 0
-92 -125 0
-92 -146 0
-92 -163 0
-92 -183 0
-108 -125 0
-108 -146 0
-108 -163 0
-108 -183 0
-125 -146 0
-125 -163 0
-125 -183 0
-146 -163 0
-146 -183 0
-163 -183 0
-16 -35 0
-16 -54 0
-16 -75 0
-16 -93 0
-16 -109 0
-16 -126 0
-16 -147 0
-16 -164 0
-16 -184 0
-35 -54 0
-35 -75 0
-35 -93 0
-35 -109 0
-35 -126 0
-35 -147 0
-35 -164 0
-35 -184 0
-54 -75 0
-54 -93 0
-54 -109 0
-54 -126 0
-54 -147 0
-54 -164 0
-54 -184 0
-75 -93 0
-75 -109 0
-75 -126 0
-75 -147 0
-75 -164 0
-75 -184 0
-93 -109 0
-93 -126 0
-93 -147 0
-93 -164 0
-93 -184 0
-109 -126 0
-109 -147 0
-109 -164 0
-109 -184 0
-126 -147 0
-126 -164 0
-126 -184 0
-147 -164 0
-147 -184 0
-164 -184 0
-17 -36 0
-17 -55 0
-17 -76 0
-17 -110 0
-17 -127 0
-17 -148 0
-17 -165 0
-36 -55 0
-36 -76 0
-36 -110 0
-36 -127 0
-36 -148 0
-36 -165 0
-55 -76 0
-55 -110 0
-55 -127 0
-55 -148 0
-55 -165 0
-76 -110 0
-76 -127 0
-76 -148 0
-76 -165 0
-110 -127 0
-110 -148 0
-110 -165 0
-127 -148 0
-127 -165 0
-148 -165 0
-18 -37 0
-18 -56 0
-18 -77 0
-18 -94 0
-18 -111 0
-18 -128 0
-18 -149 0
-18 -185 0
-37 -56 0
-37 -77 0
-37 -94 0
-37 -111 0
-37 -128 0
-37 -149 0
-37 -185 0
-56 -77 0
-56 -94 0
-56 -111 0
-56 -128 0
-56 -149 0
-56 -185 0
-77 -94 0
-77 -111 0
-77 -128 0
-77 -149 0
-77 -185 0
-94 -111 0
-94 -128 0
-94 -149 0
-94 -185 0
-111 -128 0
-111 -149 0
-111 -185 0
-128 -149 0
-128 -185 0
-149 -185 0
-19 -38 0
-19 -57 0
-19 -78 0
-19 -112 0
-19 -129 0
-19 -150 0
-19 -166 0
-19 -186 0
-38 -57 0
-38 -78 0
-38 -112 0
-38 -129 0
-38 -150 0
-38 -166 0
-38 -186 0
-57 -78 0
-57 -112 0
-57 -129 0
-57 -150 0
-57 -166 0
-57 -186 0
-78 -112 0
-78 -129 0
-78 -150 0
-78 -166 0
-78 -186 0
-112 -129 0
-112 -150 0
-112 -166 0
-112 -186 0
-129 -150 0
-129 -166 0
-129 -186 0
-150 -166 0
-150 -186 0
-166 -186 0
-20 -39 0
-20 -58 0
-20 -79 0
-20 -95 0
-20 -113 0
-20 -130 0
-20 -151 0
-20 -167 0
-20 -187 0
-39 -58 0
-39 -79 0
-39 -95 0
-39 -113 0
-39 -130 0
-39 -151 0
-39 -167 0
-39 -187 0
-58 -79 0
-58 -95 0
-58 -113 0
-58 -130 0
-58 -151 0
-58 -167 0
-58 -187 0
-79 -95 0
-79 -113 0
-79 -130 0
-79 -151 0
-79 -167 0
-79 -187 0
-95 -113 0
-95 -130 0
-95 -151 0
-95 -167 0
-95 -187 0
-113 -130 0
-113 -151 0
-113 -167 0
-113 -187 0
-130 -151 0
-130 -167 0
-130 -187 0
-151 -167 0
-151 -187 0
-167 -187 0
-21 -40 0
-21 -59 0
-21 -80 0
-21 -114 0
-21 -131 0
-21 -152 0
-21 -168 0
-21 -188 0
-40 -59 0
-40 -80 0
-40 -114 0
-40 -131 0
-40 -152 0
-40 -168 0
-40 -188 0
-59 -80 0
-59 -114 0
-59 -131 0
-59 -152 0
-59 -168 0
-59 -188 0
-80 -114 0
-80 -131 0
-80 -152 0
-80 -168 0
-80 -188 0
-114 -131 0
-114 -152 0
-114 -168 0
-114 -188 0
-131 -152 0
-131 -168 0
-131 -188 0
-152 -168 0
-152 -188 0
-168 -188 0
